
Gurobi 13.0.2 (win64) logging started Thu Jul 23 16:47:22 2026

Set parameter LogFile to value "E:\codes\ExactEBRP\results\gf_gurobi_performance_recovery_round29\runs\stage2__high_imbalance_seed5203__c3_replica__300s\external\native_logs\R.1.0.0.1.0.1_lp.gurobi.log"
Gurobi Optimizer version 13.0.2 build v13.0.2rc1 (win64 - Windows 10.0 (19045.2))

CPU model: 12th Gen Intel(R) Core(TM) i7-12700KF, instruction set [SSE2|AVX|AVX2]
Thread count: 12 physical cores, 20 logical processors, using up to 1 threads

Non-default parameters:
TimeLimit  169.4748529
MIPGap  0
MIPGapAbs  0
LogToConsole  0
Threads  1

Optimize a model with 11922 rows, 3380 columns and 67404 nonzeros (Min)
Model fingerprint: 0x614e2dc8
Model has 21 linear objective coefficients
Coefficient statistics:
  Matrix range     [2e-02, 2e+04]
  Objective range  [2e-02, 1e+00]
  Bounds range     [5e-01, 4e+03]
  RHS range        [5e-01, 5e+04]

Presolve removed 1592 rows and 101 columns
Presolve time: 0.03s
Presolved: 10330 rows, 3280 columns, 53725 nonzeros

Iteration    Objective       Primal Inf.    Dual Inf.      Time
       0    9.2452295e-01   6.521421e+02   0.000000e+00      0s
    3085    2.0343803e+00   0.000000e+00   0.000000e+00      0s

Solved in 3085 iterations and 0.19 seconds (0.57 work units)
Optimal objective  2.034380271e+00

User-callback calls 3229, time in user-callback 0.00 sec
